72
(P,P)-infinitene; original paper SI p. S23; PBE0/6-311+G(d,p); angstrom
C -1.7549160 1.3330810 -1.2727700
C -1.9289940 2.4151310 -0.4688610
C -1.6363140 2.3466800 0.9196360
C -1.7126740 3.5219750 1.7029970
C -1.4569160 3.4601450 3.0340750
C -0.9837590 2.2636440 3.6334300
C -0.7733460 2.2764920 5.0351400
C -0.3860840 1.1453450 5.6687950
C 0.0000000 0.0000000 4.9246020
C 0.3860840 -1.1453450 5.6687950
C 0.7733460 -2.2764920 5.0351400
C 0.9837590 -2.2636440 3.6334300
C 0.7524840 -1.0879580 2.8612350
C 0.0000000 0.0000000 3.4992600
C -0.7524840 1.0879580 2.8612350
C -1.2798180 1.1097850 1.5133260
C -1.4757990 -0.0630220 0.7045480
C -1.7549160 -1.3330810 1.2727700
C -1.4757990 0.0630220 -0.7045480
C -1.9289940 -2.4151310 0.4688610
C -1.2798180 -1.1097850 -1.5133260
C -1.6363140 -2.3466800 -0.9196360
C -0.7524840 -1.0879580 -2.8612350
C -1.7126740 -3.5219750 -1.7029970
C -0.9837590 -2.2636440 -3.6334300
C 0.0000000 0.0000000 -3.4992600
C -1.4569160 -3.4601450 -3.0340750
C -0.7733460 -2.2764920 -5.0351400
C 0.0000000 0.0000000 -4.9246020
C 0.7524840 1.0879580 -2.8612350
C -0.3860840 -1.1453450 -5.6687950
C 0.3860840 1.1453450 -5.6687950
C 0.9837590 2.2636440 -3.6334300
C 1.2798180 1.1097850 -1.5133260
C 0.7733460 2.2764920 -5.0351400
C 1.4569160 3.4601450 -3.0340750
C 1.6363140 2.3466800 -0.9196360
C 1.7126740 3.5219750 -1.7029970
C 1.4757990 -0.0630220 -0.7045480
C 1.4757990 0.0630220 0.7045480
C 1.4569160 -3.4601450 3.0340750
C 1.7549160 1.3330810 1.2727700
C 1.9289940 2.4151310 0.4688610
C 1.2798180 -1.1097850 1.5133260
C 1.9289940 -2.4151310 -0.4688610
C 1.7549160 -1.3330810 -1.2727700
C 1.7126740 -3.5219750 1.7029970
C 1.6363140 -2.3466800 0.9196360
H -2.2392930 3.3684460 -0.8851660
H -2.0134520 4.4515360 1.2296440
H -1.5825920 4.3326040 3.6680320
H -0.9888310 3.1868630 5.5856190
H -0.3169590 1.1016610 6.7511970
H 0.3169590 -1.1016610 6.7511970
H 0.9888310 -3.1868630 5.5856190
H -2.2392930 -3.3684460 0.8851660
H -2.0134520 -4.4515360 -1.2296440
H -1.5825920 -4.3326040 -3.6680320
H -0.9888310 -3.1868630 -5.5856190
H -0.3169590 -1.1016610 -6.7511970
H 0.3169590 1.1016610 -6.7511970
H 0.9888310 3.1868630 -5.5856190
H 1.5825920 4.3326040 -3.6680320
H 2.0134520 4.4515360 -1.2296440
H -1.8969130 -1.4136950 2.3435870
H -1.8969130 1.4136950 -2.3435870
H 1.8969130 1.4136950 2.3435870
H 2.2392930 3.3684460 0.8851660
H 1.8969130 -1.4136950 -2.3435870
H 1.5825920 -4.3326040 3.6680320
H 2.0134520 -4.4515360 1.2296440
H 2.2392930 -3.3684460 -0.8851660
